
Gurobi 11.0.1 (win64) logging started Tue May 14 18:25:22 2024

Set parameter LogFile to value "output/solver_log18.txt"
Gurobi Optimizer version 11.0.1 build v11.0.1rc0 (win64 - Windows 11.0 (22631.2))

CPU model: 11th Gen Intel(R) Core(TM) i7-1165G7 @ 2.80GHz, instruction set [SSE2|AVX|AVX2|AVX512]
Thread count: 4 physical cores, 8 logical processors, using up to 8 threads

Optimize a model with 1062 rows, 205 columns and 20032 nonzeros
Model fingerprint: 0x6e75edb3
Variable types: 88 continuous, 117 integer (117 binary)
Coefficient statistics:
  Matrix range     [4e-01, 1e+05]
  Objective range  [1e+00, 1e+02]
  Bounds range     [1e+00, 1e+00]
  RHS range        [1e-02, 1e+05]

User MIP start produced solution with objective 38085.5 (0.00s)
User MIP start produced solution with objective 39286 (0.00s)
User MIP start produced solution with objective 39286 (0.01s)
Loaded user MIP start with objective 39286

Presolve removed 76 rows and 78 columns
Presolve time: 0.02s
Presolved: 986 rows, 127 columns, 19377 nonzeros
Variable types: 81 continuous, 46 integer (45 binary)

Root relaxation: objective 4.040821e+04, 220 iterations, 0.01 seconds (0.03 work units)

    Nodes    |    Current Node    |     Objective Bounds      |     Work
 Expl Unexpl |  Obj  Depth IntInf | Incumbent    BestBd   Gap | It/Node Time

     0     0 40408.2057    0    3 39286.0354 40408.2057  2.86%     -    0s
     0     0 39545.7139    0    4 39286.0354 39545.7139  0.66%     -    0s
     0     0          -    0      39286.0354 39289.2163  0.01%     -    0s

Cutting planes:
  Cover: 1
  RLT: 2

Explored 1 nodes (373 simplex iterations) in 0.12 seconds (0.18 work units)
Thread count was 8 (of 8 available processors)

Solution count 3: 39286 39286 38085.5 

Optimal solution found (tolerance 1.00e-04)
Best objective 3.928603538119e+04, best bound 3.928921625220e+04, gap 0.0081%
